Name: Octadecanoic acid, methyl ester
Synon: Stearic acid, methyl ester
Synon: n-Octadecanoic acid, methyl ester
Synon: Kemester 9718
Synon: Methyl n-octadecanoate
Synon: Methyl octadecanoate
Synon: Methyl stearate
Synon: Metholene 2218
Synon: Emery 2218
Synon: Kemester 9018
Synon: Methyl ester of octadecanoic acid
Formula: C19H38O2
MW: 298
CAS#: 112-61-8;  NIST#: 291013
DB#: 38270
Comments: NIST Mass Spectrometry Data Center, 1998.
Num Peaks: 160
15 4; 26 1; 27 20; 29 62; 30 2; 
31 2; 33 1; 38 1; 39 27; 40 6; 
41 228; 42 50; 43 338; 44 13; 45 10; 
51 1; 52 1; 53 17; 54 21; 55 303; 
56 57; 57 202; 58 14; 59 93; 60 4; 
61 2; 65 3; 66 2; 67 37; 68 17; 
69 164; 70 30; 71 75; 72 5; 73 27; 
74 999; 75 240; 76 12; 77 4; 78 1; 
79 11; 80 3; 81 31; 82 14; 83 108; 
84 40; 85 40; 86 1; 87 744; 88 66; 
89 5; 91 2; 93 9; 94 3; 95 25; 
96 11; 97 89; 98 36; 99 9; 100 3; 
101 74; 102 7; 103 1; 105 1; 107 8; 
108 2; 109 14; 110 6; 111 36; 112 9; 
113 6; 114 2; 115 26; 116 12; 117 1; 
119 1; 121 10; 122 2; 123 7; 124 3; 
125 16; 126 3; 127 2; 128 1; 129 82; 
130 20; 131 2; 135 8; 136 1; 137 3; 
138 2; 139 8; 140 2; 141 1; 142 1; 
143 235; 144 24; 145 2; 149 6; 150 1; 
151 1; 152 1; 153 5; 154 1; 155 1; 
156 1; 157 31; 158 4; 163 3; 164 1; 
165 1; 166 1; 167 3; 168 1; 171 16; 
172 4; 177 2; 180 1; 181 2; 182 1; 
185 39; 186 8; 187 1; 191 1; 195 1; 
196 1; 199 94; 200 14; 201 2; 205 1; 
209 1; 213 34; 214 6; 215 1; 219 1; 
222 2; 223 1; 224 2; 225 1; 227 12; 
228 3; 237 1; 241 25; 242 5; 243 1; 
247 1; 248 1; 255 114; 256 21; 257 2; 
265 1; 266 1; 267 51; 268 10; 269 23; 
270 5; 271 1; 298 140; 299 31; 300 4; 

