Name: 1,1'-Biphenyl, 4-(1-methylethyl)-
Synon: Biphenyl, 4-isopropyl-
Synon: 4-Isopropylbiphenyl
Synon: p-Isopropyldiphenyl
Synon: 4-Isopropyl-1,1'-biphenyl  #
Formula: C15H16
MW: 196
CAS#: 7116-95-2;  NIST#: 238193
DB#: 134207
Comments: Japan AIST/NIMC Database- Spectrum MS-NW-7586
Num Peaks: 107
15 1; 27 11; 28 3; 29 1; 38 1; 
39 17; 40 1; 41 15; 42 1; 43 3; 
44 1; 50 8; 51 27; 52 6; 53 7; 
57 2; 62 5; 63 18; 64 8; 65 9; 
69 5; 70 4; 71 2; 74 7; 75 14; 
76 48; 77 66; 78 10; 79 3; 81 4; 
82 17; 83 38; 84 29; 86 3; 87 6; 
88 15; 89 46; 90 40; 91 18; 92 1; 
94 2; 95 1; 96 1; 97 1; 98 9; 
99 2; 100 1; 101 5; 102 12; 103 28; 
104 4; 110 1; 111 1; 113 4; 114 2; 
115 36; 116 5; 117 2; 118 1; 119 4; 
125 2; 126 9; 127 15; 128 16; 129 6; 
137 1; 138 1; 139 12; 140 2; 141 17; 
142 4; 149 1; 150 9; 151 25; 152 82; 
153 52; 154 27; 155 14; 156 2; 162 1; 
163 6; 164 8; 165 193; 166 188; 167 47; 
168 6; 169 1; 171 1; 173 1; 174 1; 
175 1; 176 12; 177 13; 178 69; 179 86; 
180 36; 181 999; 182 154; 183 11; 184 1; 
191 2; 193 1; 194 2; 195 10; 196 450; 
197 75; 198 6; 

