Name: Phenanthrene
Synon: Phenanthren
Synon: Phenanthrin
Synon: Phenantrin
Formula: C14H10
MW: 178
CAS#: 85-01-8;  NIST#: 113931
DB#: 132125
Comments: NIST Mass Spectrometry Data Center, 1990.
Num Peaks: 48
27 6; 28 2; 38 7; 39 19; 50 31; 
51 27; 61 9; 62 28; 63 64; 64 3; 
74 50; 75 72; 76 137; 85 6; 86 22; 
87 44; 88 93; 89 101; 98 28; 99 18; 
100 7; 101 6; 102 9; 110 8; 111 9; 
113 7; 115 4; 122 7; 123 4; 125 8; 
126 21; 127 7; 128 9; 139 15; 149 13; 
150 77; 151 91; 152 132; 153 16; 163 5; 
174 24; 175 32; 176 202; 177 121; 178 999; 
179 150; 180 11; 184 5; 

